(declare-const a Real)
(declare-const b Real)
(declare-const c Real)
(assert (= (* a b c) 1))
(assert (> a 0))
(assert (> b 0))
(assert (> c 0))
(assert (not (<= (+ (/ 3 2) (* -1 (pow (+ (pow (+ (pow (+ (* a (pow b 3)) (* c (pow b 3))) -1) (pow (+ (* b (pow a 3)) (* c (pow a 3))) -1)) (/ -1 3)) (pow (+ (* a (pow c 3)) (* b (pow c 3))) -1)) (/ -1 3)) (pow (+ (* (pow (+ (pow (+ (* a (pow b 3)) (* c (pow b 3))) -1) (pow (+ (* b (pow a 3)) (* c (pow a 3))) -1)) (/ -1 3)) (+ (* a c (pow b -2) (pow (+ a c) -1)) (* b c (pow a -2) (pow (+ b c) -1)))) (* a b c (pow (+ (* a (pow c 3)) (* b (pow c 3))) -1))) (/ 4 3)))) 0)))
(check-sat)
(get-model)
(exit)